p tw 35 38
1 2
2 13
3 4
3 6
4 5
5 28
6 7
7 8
8 24
9 10
10 11
11 12
12 14
13 24
14 15
14 26
15 16
16 17
17 18
18 19
19 20
19 22
20 21
21 28
22 23
23 25
24 30
25 11
26 27
27 28
28 29
30 31
31 32
31 9
32 33
33 34
34 35
35 3
